p cnf 73 44
9 -43 0
9 -46 0
39 -46 0
9 -10 37 39 0
39 -43 0
9 37 38 41 0
-9 -10 35 43 0
-9 10 36 46 0
-36 -46 0
-9 -44 0
9 10 38 39 0
-9 -47 0
-10 35 37 42 0
10 36 38 45 0
35 36 37 38 48 0
10 -43 0
-9 35 36 40 0
9 -40 0
-38 -47 0
-37 -44 0
-39 40 43 44 46 47 0
-10 -45 0
-10 -47 0
-9 -41 0
10 -42 0
10 -44 0
-9 49 50 54 0
-50 -54 0
-49 -54 0
-35 -43 0
-35 -42 0
-36 -40 0
-35 -48 0
-38 -45 0
-36 -45 0
-37 -42 0
-38 -41 0
-37 -41 0
-38 -48 0
-37 -48 0
-36 -48 0
9 -54 0
-10 -46 0
39 -40 0
